p cnf 60 216
-4 -2 0
-4 3 0
2 -3 4 0
1 -4 -5 0
-1 4 -5 0
1 4 5 0
-1 -4 5 0
-6 -3 -7 0
6 3 -7 0
-6 3 7 0
6 -3 7 0
-5 7 -8 0
5 -7 -8 0
-5 -7 8 0
5 7 8 0
-9 -10 -11 0
9 10 -11 0
-9 10 11 0
9 -10 11 0
12 -11 0
12 3 0
11 -3 -12 0
-13 8 0
-13 -12 0
-8 12 13 0
14 -5 0
14 5 0
-16 3 0
-16 15 0
-3 -15 16 0
17 14 0
17 -16 0
-14 16 -17 0
19 5 0
19 18 0
-5 -18 -19 0
-7 19 -20 0
7 -19 -20 0
-7 -19 20 0
7 19 20 0
-21 -17 0
-21 20 0
17 -20 21 0
9 -22 0
-9 -22 0
-5 22 -23 0
5 -22 -23 0
-5 -22 23 0
5 22 23 0
-24 2 0
-24 -15 0
-2 15 24 0
-7 9 -25 0
7 -9 -25 0
-7 -9 25 0
7 9 25 0
24 -25 -26 0
-24 25 -26 0
24 25 26 0
-24 -25 26 0
-27 23 0
-27 -26 0
-23 26 27 0
-28 -19 0
-28 -7 0
19 7 28 0
29 15 0
29 -15 0
-30 9 0
-30 -29 0
-9 29 30 0
31 -25 0
31 30 0
25 -30 -31 0
-18 -33 -34 0
18 33 -34 0
-18 33 34 0
18 -33 34 0
-35 32 0
-35 -34 0
-32 34 35 0
-31 -35 -36 0
31 35 -36 0
-31 35 36 0
31 -35 36 0
28 36 -37 0
-28 -36 -37 0
28 -36 37 0
-28 36 37 0
-38 27 0
-38 37 0
-27 -37 38 0
39 5 0
39 18 0
-5 -18 -39 0
40 39 0
40 -33 0
-39 33 -40 0
41 -38 0
41 -40 0
38 40 -41 0
-42 21 0
-42 41 0
-21 -41 42 0
-43 -1 0
-43 -34 0
1 34 43 0
3 18 -44 0
-3 -18 -44 0
3 -18 44 0
-3 18 44 0
44 10 -45 0
-44 -10 -45 0
44 -10 45 0
-44 10 45 0
-46 2 0
-46 45 0
-2 -45 46 0
-43 46 -47 0
43 -46 -47 0
-43 -46 47 0
43 46 47 0
-48 -29 0
-48 -24 0
29 24 48 0
47 48 -49 0
-47 -48 -49 0
47 -48 49 0
-47 48 49 0
50 42 0
50 -49 0
-42 49 -50 0
-51 -24 0
-51 -10 0
24 10 51 0
52 2 0
52 45 0
-2 -45 -52 0
53 -51 0
53 52 0
51 -52 -53 0
-16 -6 -54 0
16 6 -54 0
-16 6 54 0
16 -6 54 0
-55 -53 0
-55 54 0
53 -54 55 0
56 33 0
56 -15 0
-33 15 -56 0
-56 9 -57 0
56 -9 -57 0
-56 -9 57 0
56 9 57 0
-58 55 0
-58 -57 0
-55 57 58 0
59 50 0
59 58 0
-50 -58 -59 0
-13 59 -60 0
13 -59 -60 0
-13 -59 60 0
13 59 60 0
-57 11 -44 -49 14 35 0
26 46 -1 0
59 -32 -41 24 31 0
-7 -51 -30 26 -3 -59 0
-34 42 44 -39 -51 25 0
4 -53 -35 45 0
56 -18 0
-38 2 -44 19 -11 57 0
-29 -42 -17 -43 -16 0
-21 52 13 -12 40 0
18 -60 58 -30 41 49 0
-29 -52 -17 0
45 5 56 0
-18 -13 47 -6 21 0
-34 44 -42 0
-53 31 -16 0
-40 31 -7 -30 -46 0
12 -1 7 29 -5 0
13 58 -42 -1 0
-12 -46 0
31 -39 21 0
-29 -20 -47 -16 0
10 -30 5 -55 0
26 33 -59 0
-35 58 56 0
34 27 50 -48 43 0
-32 -46 40 24 0
-25 -9 0
26 -9 57 0
-16 -44 0
1 55 0
-14 -47 0
-4 12 6 0
-26 -33 -53 -52 58 0
-5 54 11 -45 46 0
-31 7 33 -26 60 0
6 -60 42 3 1 -54 0
-6 40 2 -27 0
-9 -50 51 -13 45 0
-2 -56 35 39 48 -5 0
24 27 -59 38 -21 31 0
17 26 -2 0
47 48 53 0
41 22 -29 0
-36 54 0
56 -12 0
-14 57 0
14 26 -1 -2 12 0
40 56 28 2 0
15 4 13 0
60 0
